s td 16 4 18
b 1 5 6
b 2 13 14
b 3 1 2 8
b 4 2 3 8
b 5 3 4 5
b 6 3 5 12
b 7 7 8 14
b 8 3 11 12
b 9 8 14 15
b 10 8 15 16
b 11 16 17 18
b 12 11 16 18
b 13 3 8 10 11
b 14 8 9 10 16
b 15 8 10 11 16
b 16 11 16
1 6
2 9
3 4
4 13
5 6
6 8
7 9
8 13
9 10
10 14
11 12
12 16
13 15
14 15
15 16
